3
50
13616
[[255, 57,875, 71, 47,347,693,556,489,841,816,502,281,536,231,740,460,365,400,136,762,740, 62,498,731,702,854,257,802,561, 89,462,686,308,257,618, 89,397,659,540, 27,284,663,522,824,619,928,571,438,528],
 [745,943,125,929,953,653,307,444,511,159,184,498,719,464,769,260,540,635,600,864,238,260,938,502,269,298,146,743,198,439,911,538,314,692,743,382,911,603,341,460,973,716,337,478,176,381, 72,429,562,472],
 [  8, 29, 59, 87, 11, 24, 53, 58, 73, 64, 72, 80, 85, 78, 36, 20, 22, 83, 39, 45,  7, 25,  5, 70, 30, 89, 26, 60, 80, 15, 42, 70, 48, 73, 44, 98, 91, 93,  7, 82, 11,  4, 60, 62, 30, 63, 44, 98, 83, 26]]
[719,218,644,572,586,494,297,711,562,108,278,449,631,471, 59,607,861,241,825,503,786,309,884,254,926,837,992,621,794,311,242,731,186,899,457, 82,371,760,334,368,918,899,790,949,331,577,146,265,902,475]